Minimize
	value: tt

Subject to
tt + 1000 s_1_1 > 0.0
tt - t_1_1 - 1001.731947 s_1_1  + 0.865973 s_1_8  + 0.865973 s_1_7  > -998.872111
tt + 1000 s_2_1 > 0.0
tt - t_2_1 - 1001.852658 s_2_1  + 0.926329 s_2_8  + 0.926329 s_2_7  > -991.812990
tt + 1000 s_1_2 > 0.0
tt - t_1_2 - 1000.865973 s_1_2  + 0.865973 s_1_7  > -998.929378
tt + 1000 s_2_2 > 0.0
tt - t_2_2 - 1000.926329 s_2_2  + 0.926329 s_2_7  > -991.963756
tt + 1000 s_1_3 > 0.0
tt - t_1_3 - 1001.731947 s_1_3  + 0.865973 s_1_8  + 0.865973 s_1_7  > -999.831300
tt + 1000 s_2_3 > 0.0
tt - t_2_3 - 1001.852658 s_2_3  + 0.926329 s_2_8  + 0.926329 s_2_7  > -998.576875
tt + 1000 s_1_4 > 0.0
tt - t_1_4 - 1000.865973 s_1_4  + 0.865973 s_1_7  > -999.749700
tt + 1000 s_2_4 > 0.0
tt - t_2_4 - 1000.926329 s_2_4  + 0.926329 s_2_7  > -997.937464
tt + 1000 s_1_5 > 0.0
tt - t_1_5 - 1000.865973 s_1_5  + 0.865973 s_1_8  > -999.545789
tt + 1000 s_2_5 > 0.0
tt - t_2_5 - 1000.926329 s_2_5  + 0.926329 s_2_8  > -995.803024
tt + 1000 s_1_6 > 0.0
tt - t_1_6 - 1005.195840 s_1_6  + 0.865973 s_1_3  + 0.865973 s_1_4  + 0.865973 s_1_1  + 0.865973 s_1_5  + 0.865973 s_1_2  + 0.865973 s_1_7  > -999.847000
tt + 1000 s_2_6 > 0.0
tt - t_2_6 - 1005.557973 s_2_6  + 0.926329 s_2_3  + 0.926329 s_2_4  + 0.926329 s_2_1  + 0.926329 s_2_5  + 0.926329 s_2_2  + 0.926329 s_2_7  > -998.817500
tt + 1000 s_1_7 > 0.0
tt - t_1_7 - 1000.000000 s_1_7  > -994.185925
tt + 1000 s_2_7 > 0.0
tt - t_2_7 - 1000.000000 s_2_7  > -981.861536
tt + 1000 s_1_8 > 0.0
tt - t_1_8 - 1000.000000 s_1_8  > -998.925500
tt + 1000 s_2_8 > 0.0
tt - t_2_8 - 1000.000000 s_2_8  > -997.167569
s_1_1 + s_2_1 = 1
s_1_2 + s_2_2 = 1
s_1_3 + s_2_3 = 1
s_1_4 + s_2_4 = 1
s_1_5 + s_2_5 = 1
s_1_6 + s_2_6 = 1
s_1_7 + s_2_7 = 1
s_1_8 + s_2_8 = 1
s_1_1 + s_1_2 + 1000 r_1_1_2 >= 2
- s_1_1 - s_1_2 - 1000 r_1_1_2 >= -1001
t_1_1 - t_1_2 - 1000.000000 u_1_1_2 - 0.865973 s_1_2  + 0.865973 s_1_7  + 2000.000000 r_1_1_2 > -998.929378
s_2_1 + s_2_2 + 1000 r_2_1_2 >= 2
- s_2_1 - s_2_2 - 1000 r_2_1_2 >= -1001
t_2_1 - t_2_2 - 1000.000000 u_2_1_2 - 0.926329 s_2_2  + 0.926329 s_2_7  + 2000.000000 r_2_1_2 > -991.963756
s_1_1 + s_1_3 + 1000 r_1_1_3 >= 2
- s_1_1 - s_1_3 - 1000 r_1_1_3 >= -1001
t_1_1 - t_1_3 - 1000.000000 u_1_1_3 - 1.731947 s_1_3  + 0.865973 s_1_8  + 0.865973 s_1_7  + 2000.000000 r_1_1_3 > -999.831300
s_2_1 + s_2_3 + 1000 r_2_1_3 >= 2
- s_2_1 - s_2_3 - 1000 r_2_1_3 >= -1001
t_2_1 - t_2_3 - 1000.000000 u_2_1_3 - 1.852658 s_2_3  + 0.926329 s_2_8  + 0.926329 s_2_7  + 2000.000000 r_2_1_3 > -998.576875
s_1_1 + s_1_4 + 1000 r_1_1_4 >= 2
- s_1_1 - s_1_4 - 1000 r_1_1_4 >= -1001
t_1_1 - t_1_4 - 1000.000000 u_1_1_4 - 0.865973 s_1_4  + 0.865973 s_1_7  + 2000.000000 r_1_1_4 > -999.749700
s_2_1 + s_2_4 + 1000 r_2_1_4 >= 2
- s_2_1 - s_2_4 - 1000 r_2_1_4 >= -1001
t_2_1 - t_2_4 - 1000.000000 u_2_1_4 - 0.926329 s_2_4  + 0.926329 s_2_7  + 2000.000000 r_2_1_4 > -997.937464
s_1_1 + s_1_5 + 1000 r_1_1_5 >= 2
- s_1_1 - s_1_5 - 1000 r_1_1_5 >= -1001
t_1_1 - t_1_5 - 1000.000000 u_1_1_5 - 0.865973 s_1_5  + 0.865973 s_1_8  + 2000.000000 r_1_1_5 > -999.545789
s_2_1 + s_2_5 + 1000 r_2_1_5 >= 2
- s_2_1 - s_2_5 - 1000 r_2_1_5 >= -1001
t_2_1 - t_2_5 - 1000.000000 u_2_1_5 - 0.926329 s_2_5  + 0.926329 s_2_8  + 2000.000000 r_2_1_5 > -995.803024
t_1_6 - t_1_1 - 1001.731947 s_1_1  + 0.865973 s_1_8  + 0.865973 s_1_7  > -998.872111
t_1_6 - t_2_1 - 1001.852658 s_2_1  + 0.926329 s_2_8  + 0.926329 s_2_7  > -991.812990
t_2_6 - t_1_1 - 1001.731947 s_1_1  + 0.865973 s_1_8  + 0.865973 s_1_7  > -998.872111
t_2_6 - t_2_1 - 1001.852658 s_2_1  + 0.926329 s_2_8  + 0.926329 s_2_7  > -991.812990
t_1_1 - t_1_7 - 1000.000000 s_1_7  > -994.185925
t_1_1 - t_2_7 - 1000.000000 s_2_7  > -981.861536
t_2_1 - t_1_7 - 1000.000000 s_1_7  > -994.185925
t_2_1 - t_2_7 - 1000.000000 s_2_7  > -981.861536
t_1_1 - t_1_8 - 1000.000000 s_1_8  > -998.925500
t_1_1 - t_2_8 - 1000.000000 s_2_8  > -997.167569
t_2_1 - t_1_8 - 1000.000000 s_1_8  > -998.925500
t_2_1 - t_2_8 - 1000.000000 s_2_8  > -997.167569
s_1_2 + s_1_1 + 1000 r_1_1_2 >= 2
- s_1_2 - s_1_1 - 1000 r_1_1_2 >= -1001
t_1_2 - t_1_1 + 1000.000000 u_1_1_2 - 1.731947 s_1_1  + 0.865973 s_1_8  + 0.865973 s_1_7  + 2000.000000 r_1_1_2 > 1.127889
s_2_2 + s_2_1 + 1000 r_2_1_2 >= 2
- s_2_2 - s_2_1 - 1000 r_2_1_2 >= -1001
t_2_2 - t_2_1 + 1000.000000 u_2_1_2 - 1.852658 s_2_1  + 0.926329 s_2_8  + 0.926329 s_2_7  + 2000.000000 r_2_1_2 > 8.187010
s_1_2 + s_1_3 + 1000 r_1_2_3 >= 2
- s_1_2 - s_1_3 - 1000 r_1_2_3 >= -1001
t_1_2 - t_1_3 - 1000.000000 u_1_2_3 - 1.731947 s_1_3  + 0.865973 s_1_8  + 0.865973 s_1_7  + 2000.000000 r_1_2_3 > -999.831300
s_2_2 + s_2_3 + 1000 r_2_2_3 >= 2
- s_2_2 - s_2_3 - 1000 r_2_2_3 >= -1001
t_2_2 - t_2_3 - 1000.000000 u_2_2_3 - 1.852658 s_2_3  + 0.926329 s_2_8  + 0.926329 s_2_7  + 2000.000000 r_2_2_3 > -998.576875
s_1_2 + s_1_4 + 1000 r_1_2_4 >= 2
- s_1_2 - s_1_4 - 1000 r_1_2_4 >= -1001
t_1_2 - t_1_4 - 1000.000000 u_1_2_4 - 0.865973 s_1_4  + 0.865973 s_1_7  + 2000.000000 r_1_2_4 > -999.749700
s_2_2 + s_2_4 + 1000 r_2_2_4 >= 2
- s_2_2 - s_2_4 - 1000 r_2_2_4 >= -1001
t_2_2 - t_2_4 - 1000.000000 u_2_2_4 - 0.926329 s_2_4  + 0.926329 s_2_7  + 2000.000000 r_2_2_4 > -997.937464
s_1_2 + s_1_5 + 1000 r_1_2_5 >= 2
- s_1_2 - s_1_5 - 1000 r_1_2_5 >= -1001
t_1_2 - t_1_5 - 1000.000000 u_1_2_5 - 0.865973 s_1_5  + 0.865973 s_1_8  + 2000.000000 r_1_2_5 > -999.545789
s_2_2 + s_2_5 + 1000 r_2_2_5 >= 2
- s_2_2 - s_2_5 - 1000 r_2_2_5 >= -1001
t_2_2 - t_2_5 - 1000.000000 u_2_2_5 - 0.926329 s_2_5  + 0.926329 s_2_8  + 2000.000000 r_2_2_5 > -995.803024
t_1_6 - t_1_2 - 1000.865973 s_1_2  + 0.865973 s_1_7  > -998.929378
t_1_6 - t_2_2 - 1000.926329 s_2_2  + 0.926329 s_2_7  > -991.963756
t_2_6 - t_1_2 - 1000.865973 s_1_2  + 0.865973 s_1_7  > -998.929378
t_2_6 - t_2_2 - 1000.926329 s_2_2  + 0.926329 s_2_7  > -991.963756
t_1_2 - t_1_7 - 1000.000000 s_1_7  > -994.185925
t_1_2 - t_2_7 - 1000.000000 s_2_7  > -981.861536
t_2_2 - t_1_7 - 1000.000000 s_1_7  > -994.185925
t_2_2 - t_2_7 - 1000.000000 s_2_7  > -981.861536
s_1_2 + s_1_8 + 1000 r_1_2_8 >= 2
- s_1_2 - s_1_8 - 1000 r_1_2_8 >= -1001
t_1_2 - t_1_8 - 1000.000000 u_1_2_8 - 0.000000 s_1_8  + 2000.000000 r_1_2_8 > -998.925500
s_2_2 + s_2_8 + 1000 r_2_2_8 >= 2
- s_2_2 - s_2_8 - 1000 r_2_2_8 >= -1001
t_2_2 - t_2_8 - 1000.000000 u_2_2_8 - 0.000000 s_2_8  + 2000.000000 r_2_2_8 > -997.167569
s_1_3 + s_1_1 + 1000 r_1_1_3 >= 2
- s_1_3 - s_1_1 - 1000 r_1_1_3 >= -1001
t_1_3 - t_1_1 + 1000.000000 u_1_1_3 - 1.731947 s_1_1  + 0.865973 s_1_8  + 0.865973 s_1_7  + 2000.000000 r_1_1_3 > 1.127889
s_2_3 + s_2_1 + 1000 r_2_1_3 >= 2
- s_2_3 - s_2_1 - 1000 r_2_1_3 >= -1001
t_2_3 - t_2_1 + 1000.000000 u_2_1_3 - 1.852658 s_2_1  + 0.926329 s_2_8  + 0.926329 s_2_7  + 2000.000000 r_2_1_3 > 8.187010
s_1_3 + s_1_2 + 1000 r_1_2_3 >= 2
- s_1_3 - s_1_2 - 1000 r_1_2_3 >= -1001
t_1_3 - t_1_2 + 1000.000000 u_1_2_3 - 0.865973 s_1_2  + 0.865973 s_1_7  + 2000.000000 r_1_2_3 > 1.070622
s_2_3 + s_2_2 + 1000 r_2_2_3 >= 2
- s_2_3 - s_2_2 - 1000 r_2_2_3 >= -1001
t_2_3 - t_2_2 + 1000.000000 u_2_2_3 - 0.926329 s_2_2  + 0.926329 s_2_7  + 2000.000000 r_2_2_3 > 8.036244
s_1_3 + s_1_4 + 1000 r_1_3_4 >= 2
- s_1_3 - s_1_4 - 1000 r_1_3_4 >= -1001
t_1_3 - t_1_4 - 1000.000000 u_1_3_4 - 0.865973 s_1_4  + 0.865973 s_1_7  + 2000.000000 r_1_3_4 > -999.749700
s_2_3 + s_2_4 + 1000 r_2_3_4 >= 2
- s_2_3 - s_2_4 - 1000 r_2_3_4 >= -1001
t_2_3 - t_2_4 - 1000.000000 u_2_3_4 - 0.926329 s_2_4  + 0.926329 s_2_7  + 2000.000000 r_2_3_4 > -997.937464
s_1_3 + s_1_5 + 1000 r_1_3_5 >= 2
- s_1_3 - s_1_5 - 1000 r_1_3_5 >= -1001
t_1_3 - t_1_5 - 1000.000000 u_1_3_5 - 0.865973 s_1_5  + 0.865973 s_1_8  + 2000.000000 r_1_3_5 > -999.545789
s_2_3 + s_2_5 + 1000 r_2_3_5 >= 2
- s_2_3 - s_2_5 - 1000 r_2_3_5 >= -1001
t_2_3 - t_2_5 - 1000.000000 u_2_3_5 - 0.926329 s_2_5  + 0.926329 s_2_8  + 2000.000000 r_2_3_5 > -995.803024
t_1_6 - t_1_3 - 1001.731947 s_1_3  + 0.865973 s_1_8  + 0.865973 s_1_7  > -999.831300
t_1_6 - t_2_3 - 1001.852658 s_2_3  + 0.926329 s_2_8  + 0.926329 s_2_7  > -998.576875
t_2_6 - t_1_3 - 1001.731947 s_1_3  + 0.865973 s_1_8  + 0.865973 s_1_7  > -999.831300
t_2_6 - t_2_3 - 1001.852658 s_2_3  + 0.926329 s_2_8  + 0.926329 s_2_7  > -998.576875
t_1_3 - t_1_7 - 1000.000000 s_1_7  > -994.185925
t_1_3 - t_2_7 - 1000.000000 s_2_7  > -981.861536
t_2_3 - t_1_7 - 1000.000000 s_1_7  > -994.185925
t_2_3 - t_2_7 - 1000.000000 s_2_7  > -981.861536
t_1_3 - t_1_8 - 1000.000000 s_1_8  > -998.925500
t_1_3 - t_2_8 - 1000.000000 s_2_8  > -997.167569
t_2_3 - t_1_8 - 1000.000000 s_1_8  > -998.925500
t_2_3 - t_2_8 - 1000.000000 s_2_8  > -997.167569
s_1_4 + s_1_1 + 1000 r_1_1_4 >= 2
- s_1_4 - s_1_1 - 1000 r_1_1_4 >= -1001
t_1_4 - t_1_1 + 1000.000000 u_1_1_4 - 1.731947 s_1_1  + 0.865973 s_1_8  + 0.865973 s_1_7  + 2000.000000 r_1_1_4 > 1.127889
s_2_4 + s_2_1 + 1000 r_2_1_4 >= 2
- s_2_4 - s_2_1 - 1000 r_2_1_4 >= -1001
t_2_4 - t_2_1 + 1000.000000 u_2_1_4 - 1.852658 s_2_1  + 0.926329 s_2_8  + 0.926329 s_2_7  + 2000.000000 r_2_1_4 > 8.187010
s_1_4 + s_1_2 + 1000 r_1_2_4 >= 2
- s_1_4 - s_1_2 - 1000 r_1_2_4 >= -1001
t_1_4 - t_1_2 + 1000.000000 u_1_2_4 - 0.865973 s_1_2  + 0.865973 s_1_7  + 2000.000000 r_1_2_4 > 1.070622
s_2_4 + s_2_2 + 1000 r_2_2_4 >= 2
- s_2_4 - s_2_2 - 1000 r_2_2_4 >= -1001
t_2_4 - t_2_2 + 1000.000000 u_2_2_4 - 0.926329 s_2_2  + 0.926329 s_2_7  + 2000.000000 r_2_2_4 > 8.036244
s_1_4 + s_1_3 + 1000 r_1_3_4 >= 2
- s_1_4 - s_1_3 - 1000 r_1_3_4 >= -1001
t_1_4 - t_1_3 + 1000.000000 u_1_3_4 - 1.731947 s_1_3  + 0.865973 s_1_8  + 0.865973 s_1_7  + 2000.000000 r_1_3_4 > 0.168700
s_2_4 + s_2_3 + 1000 r_2_3_4 >= 2
- s_2_4 - s_2_3 - 1000 r_2_3_4 >= -1001
t_2_4 - t_2_3 + 1000.000000 u_2_3_4 - 1.852658 s_2_3  + 0.926329 s_2_8  + 0.926329 s_2_7  + 2000.000000 r_2_3_4 > 1.423125
s_1_4 + s_1_5 + 1000 r_1_4_5 >= 2
- s_1_4 - s_1_5 - 1000 r_1_4_5 >= -1001
t_1_4 - t_1_5 - 1000.000000 u_1_4_5 - 0.865973 s_1_5  + 0.865973 s_1_8  + 2000.000000 r_1_4_5 > -999.545789
s_2_4 + s_2_5 + 1000 r_2_4_5 >= 2
- s_2_4 - s_2_5 - 1000 r_2_4_5 >= -1001
t_2_4 - t_2_5 - 1000.000000 u_2_4_5 - 0.926329 s_2_5  + 0.926329 s_2_8  + 2000.000000 r_2_4_5 > -995.803024
t_1_6 - t_1_4 - 1000.865973 s_1_4  + 0.865973 s_1_7  > -999.749700
t_1_6 - t_2_4 - 1000.926329 s_2_4  + 0.926329 s_2_7  > -997.937464
t_2_6 - t_1_4 - 1000.865973 s_1_4  + 0.865973 s_1_7  > -999.749700
t_2_6 - t_2_4 - 1000.926329 s_2_4  + 0.926329 s_2_7  > -997.937464
t_1_4 - t_1_7 - 1000.000000 s_1_7  > -994.185925
t_1_4 - t_2_7 - 1000.000000 s_2_7  > -981.861536
t_2_4 - t_1_7 - 1000.000000 s_1_7  > -994.185925
t_2_4 - t_2_7 - 1000.000000 s_2_7  > -981.861536
s_1_4 + s_1_8 + 1000 r_1_4_8 >= 2
- s_1_4 - s_1_8 - 1000 r_1_4_8 >= -1001
t_1_4 - t_1_8 - 1000.000000 u_1_4_8 - 0.000000 s_1_8  + 2000.000000 r_1_4_8 > -998.925500
s_2_4 + s_2_8 + 1000 r_2_4_8 >= 2
- s_2_4 - s_2_8 - 1000 r_2_4_8 >= -1001
t_2_4 - t_2_8 - 1000.000000 u_2_4_8 - 0.000000 s_2_8  + 2000.000000 r_2_4_8 > -997.167569
s_1_5 + s_1_1 + 1000 r_1_1_5 >= 2
- s_1_5 - s_1_1 - 1000 r_1_1_5 >= -1001
t_1_5 - t_1_1 + 1000.000000 u_1_1_5 - 1.731947 s_1_1  + 0.865973 s_1_8  + 0.865973 s_1_7  + 2000.000000 r_1_1_5 > 1.127889
s_2_5 + s_2_1 + 1000 r_2_1_5 >= 2
- s_2_5 - s_2_1 - 1000 r_2_1_5 >= -1001
t_2_5 - t_2_1 + 1000.000000 u_2_1_5 - 1.852658 s_2_1  + 0.926329 s_2_8  + 0.926329 s_2_7  + 2000.000000 r_2_1_5 > 8.187010
s_1_5 + s_1_2 + 1000 r_1_2_5 >= 2
- s_1_5 - s_1_2 - 1000 r_1_2_5 >= -1001
t_1_5 - t_1_2 + 1000.000000 u_1_2_5 - 0.865973 s_1_2  + 0.865973 s_1_7  + 2000.000000 r_1_2_5 > 1.070622
s_2_5 + s_2_2 + 1000 r_2_2_5 >= 2
- s_2_5 - s_2_2 - 1000 r_2_2_5 >= -1001
t_2_5 - t_2_2 + 1000.000000 u_2_2_5 - 0.926329 s_2_2  + 0.926329 s_2_7  + 2000.000000 r_2_2_5 > 8.036244
s_1_5 + s_1_3 + 1000 r_1_3_5 >= 2
- s_1_5 - s_1_3 - 1000 r_1_3_5 >= -1001
t_1_5 - t_1_3 + 1000.000000 u_1_3_5 - 1.731947 s_1_3  + 0.865973 s_1_8  + 0.865973 s_1_7  + 2000.000000 r_1_3_5 > 0.168700
s_2_5 + s_2_3 + 1000 r_2_3_5 >= 2
- s_2_5 - s_2_3 - 1000 r_2_3_5 >= -1001
t_2_5 - t_2_3 + 1000.000000 u_2_3_5 - 1.852658 s_2_3  + 0.926329 s_2_8  + 0.926329 s_2_7  + 2000.000000 r_2_3_5 > 1.423125
s_1_5 + s_1_4 + 1000 r_1_4_5 >= 2
- s_1_5 - s_1_4 - 1000 r_1_4_5 >= -1001
t_1_5 - t_1_4 + 1000.000000 u_1_4_5 - 0.865973 s_1_4  + 0.865973 s_1_7  + 2000.000000 r_1_4_5 > 0.250300
s_2_5 + s_2_4 + 1000 r_2_4_5 >= 2
- s_2_5 - s_2_4 - 1000 r_2_4_5 >= -1001
t_2_5 - t_2_4 + 1000.000000 u_2_4_5 - 0.926329 s_2_4  + 0.926329 s_2_7  + 2000.000000 r_2_4_5 > 2.062536
t_1_6 - t_1_5 - 1000.865973 s_1_5  + 0.865973 s_1_8  > -999.545789
t_1_6 - t_2_5 - 1000.926329 s_2_5  + 0.926329 s_2_8  > -995.803024
t_2_6 - t_1_5 - 1000.865973 s_1_5  + 0.865973 s_1_8  > -999.545789
t_2_6 - t_2_5 - 1000.926329 s_2_5  + 0.926329 s_2_8  > -995.803024
s_1_5 + s_1_7 + 1000 r_1_5_7 >= 2
- s_1_5 - s_1_7 - 1000 r_1_5_7 >= -1001
t_1_5 - t_1_7 - 1000.000000 u_1_5_7 - 0.000000 s_1_7  + 2000.000000 r_1_5_7 > -994.185925
s_2_5 + s_2_7 + 1000 r_2_5_7 >= 2
- s_2_5 - s_2_7 - 1000 r_2_5_7 >= -1001
t_2_5 - t_2_7 - 1000.000000 u_2_5_7 - 0.000000 s_2_7  + 2000.000000 r_2_5_7 > -981.861536
t_1_5 - t_1_8 - 1000.000000 s_1_8  > -998.925500
t_1_5 - t_2_8 - 1000.000000 s_2_8  > -997.167569
t_2_5 - t_1_8 - 1000.000000 s_1_8  > -998.925500
t_2_5 - t_2_8 - 1000.000000 s_2_8  > -997.167569
t_1_6 - t_1_7 - 1000.000000 s_1_7  > -994.185925
t_1_6 - t_2_7 - 1000.000000 s_2_7  > -981.861536
t_2_6 - t_1_7 - 1000.000000 s_1_7  > -994.185925
t_2_6 - t_2_7 - 1000.000000 s_2_7  > -981.861536
s_1_7 + s_1_5 + 1000 r_1_5_7 >= 2
- s_1_7 - s_1_5 - 1000 r_1_5_7 >= -1001
t_1_7 - t_1_5 + 1000.000000 u_1_5_7 - 0.865973 s_1_5  + 0.865973 s_1_8  + 2000.000000 r_1_5_7 > 0.454211
s_2_7 + s_2_5 + 1000 r_2_5_7 >= 2
- s_2_7 - s_2_5 - 1000 r_2_5_7 >= -1001
t_2_7 - t_2_5 + 1000.000000 u_2_5_7 - 0.926329 s_2_5  + 0.926329 s_2_8  + 2000.000000 r_2_5_7 > 4.196976
s_1_7 + s_1_8 + 1000 r_1_7_8 >= 2
- s_1_7 - s_1_8 - 1000 r_1_7_8 >= -1001
t_1_7 - t_1_8 - 1000.000000 u_1_7_8 - 0.000000 s_1_8  + 2000.000000 r_1_7_8 > -998.925500
s_2_7 + s_2_8 + 1000 r_2_7_8 >= 2
- s_2_7 - s_2_8 - 1000 r_2_7_8 >= -1001
t_2_7 - t_2_8 - 1000.000000 u_2_7_8 - 0.000000 s_2_8  + 2000.000000 r_2_7_8 > -997.167569
s_1_8 + s_1_2 + 1000 r_1_2_8 >= 2
- s_1_8 - s_1_2 - 1000 r_1_2_8 >= -1001
t_1_8 - t_1_2 + 1000.000000 u_1_2_8 - 0.865973 s_1_2  + 0.865973 s_1_7  + 2000.000000 r_1_2_8 > 1.070622
s_2_8 + s_2_2 + 1000 r_2_2_8 >= 2
- s_2_8 - s_2_2 - 1000 r_2_2_8 >= -1001
t_2_8 - t_2_2 + 1000.000000 u_2_2_8 - 0.926329 s_2_2  + 0.926329 s_2_7  + 2000.000000 r_2_2_8 > 8.036244
s_1_8 + s_1_4 + 1000 r_1_4_8 >= 2
- s_1_8 - s_1_4 - 1000 r_1_4_8 >= -1001
t_1_8 - t_1_4 + 1000.000000 u_1_4_8 - 0.865973 s_1_4  + 0.865973 s_1_7  + 2000.000000 r_1_4_8 > 0.250300
s_2_8 + s_2_4 + 1000 r_2_4_8 >= 2
- s_2_8 - s_2_4 - 1000 r_2_4_8 >= -1001
t_2_8 - t_2_4 + 1000.000000 u_2_4_8 - 0.926329 s_2_4  + 0.926329 s_2_7  + 2000.000000 r_2_4_8 > 2.062536
s_1_8 + s_1_7 + 1000 r_1_7_8 >= 2
- s_1_8 - s_1_7 - 1000 r_1_7_8 >= -1001
t_1_8 - t_1_7 + 1000.000000 u_1_7_8 - 0.000000 s_1_7  + 2000.000000 r_1_7_8 > 5.814075
s_2_8 + s_2_7 + 1000 r_2_7_8 >= 2
- s_2_8 - s_2_7 - 1000 r_2_7_8 >= -1001
t_2_8 - t_2_7 + 1000.000000 u_2_7_8 - 0.000000 s_2_7  + 2000.000000 r_2_7_8 > 18.138464
Binary
s_1_1
s_2_1
s_1_2
s_2_2
s_1_3
s_2_3
s_1_4
s_2_4
s_1_5
s_2_5
s_1_6
s_2_6
s_1_7
s_2_7
s_1_8
s_2_8
u_1_1_2
r_1_1_2
u_2_1_2
r_2_1_2
u_1_1_3
r_1_1_3
u_2_1_3
r_2_1_3
u_1_1_4
r_1_1_4
u_2_1_4
r_2_1_4
u_1_1_5
r_1_1_5
u_2_1_5
r_2_1_5
u_1_2_3
r_1_2_3
u_2_2_3
r_2_2_3
u_1_2_4
r_1_2_4
u_2_2_4
r_2_2_4
u_1_2_5
r_1_2_5
u_2_2_5
r_2_2_5
u_1_2_8
r_1_2_8
u_2_2_8
r_2_2_8
u_1_3_4
r_1_3_4
u_2_3_4
r_2_3_4
u_1_3_5
r_1_3_5
u_2_3_5
r_2_3_5
u_1_4_5
r_1_4_5
u_2_4_5
r_2_4_5
u_1_4_8
r_1_4_8
u_2_4_8
r_2_4_8
u_1_5_7
r_1_5_7
u_2_5_7
r_2_5_7
u_1_7_8
r_1_7_8
u_2_7_8
r_2_7_8

End
